NAME: renC10
TYPE: TSP
COMMENT: 10-cities problem C (seed: 3, range: 1000)
DIMENSION: 10
EDGE_WEIGHT_TYPE : EUC_2D
NODE_COORD_SECTION
1 734 660
2 210 581
3 128 202
4 549 564
5 459 961
6 585 882
7 277 614
8 981 806
9 576 137
10 886 99
EOF
